10
-1  68  91  39  29  71  53  31  40  77
68  -1  43  72  38  35  84  61  69  95
91  43  -1  40  55  54  47  74  92  62
39  72  40  -1  36  51  48  77  35  79
29  38  55  36  -1  61  28  65  42  61
71  35  54  51  61  -1  93  80  42  38
53  84  47  48  28  93  -1  44  56  68
31  61  74  77  65  80  44  -1  75  26
40  69  92  35  42  42  56  75  -1  54
77  95  62  79  61  38  68  26  54  -1